
Gurobi 6.0.5 (linux64) logging started Fri Oct 20 12:47:13 2017


Gurobi 6.0.5 (linux64) logging started Fri Oct 20 12:47:28 2017


Gurobi 6.0.5 (linux64) logging started Fri Oct 20 12:47:43 2017


Gurobi 6.0.5 (linux64) logging started Fri Oct 20 12:48:02 2017


Gurobi 6.0.5 (linux64) logging started Fri Oct 20 12:48:39 2017


Gurobi 6.0.5 (linux64) logging started Fri Oct 20 12:49:36 2017


Gurobi 6.0.5 (linux64) logging started Fri Oct 20 12:50:31 2017


Gurobi 6.0.5 (linux64) logging started Fri Oct 20 12:51:35 2017


Gurobi 6.0.5 (linux64) logging started Fri Oct 20 12:52:55 2017


Gurobi 6.0.5 (linux64) logging started Fri Oct 20 14:19:22 2017


Gurobi 6.0.5 (linux64) logging started Fri Oct 20 14:19:36 2017


Gurobi 6.0.5 (linux64) logging started Fri Oct 20 14:19:51 2017


Gurobi 6.0.5 (linux64) logging started Fri Oct 20 14:19:52 2017


Gurobi 6.0.5 (linux64) logging started Fri Oct 20 14:20:06 2017


Gurobi 6.0.5 (linux64) logging started Fri Oct 20 14:20:10 2017


Gurobi 6.0.5 (linux64) logging started Fri Oct 20 14:20:21 2017


Gurobi 6.0.5 (linux64) logging started Fri Oct 20 14:20:31 2017


Gurobi 6.0.5 (linux64) logging started Fri Oct 20 14:20:40 2017


Gurobi 6.0.5 (linux64) logging started Fri Oct 20 14:20:59 2017


Gurobi 6.0.5 (linux64) logging started Fri Oct 20 14:21:02 2017


Gurobi 6.0.5 (linux64) logging started Fri Oct 20 14:21:28 2017


Gurobi 6.0.5 (linux64) logging started Fri Oct 20 14:21:32 2017


Gurobi 6.0.5 (linux64) logging started Fri Oct 20 14:22:19 2017


Gurobi 6.0.5 (linux64) logging started Fri Oct 20 14:22:37 2017


Gurobi 6.0.5 (linux64) logging started Fri Oct 20 14:23:32 2017


Gurobi 6.0.5 (linux64) logging started Fri Oct 20 14:23:48 2017

